language Essence 1.3

letting course_load be
        function(1 --> 3, 2 --> 3, 3 --> 3, 4 --> 3, 5 --> 2, 6 --> 3, 7 --> 2, 8 --> 2, 9 --> 2, 10 --> 2, 11 --> 2,
                 12 --> 2, 13 --> 3, 14 --> 3, 15 --> 3, 16 --> 3, 17 --> 2, 18 --> 3, 19 --> 2, 20 --> 2, 21 --> 3,
                 22 --> 3, 23 --> 3, 24 --> 3, 25 --> 2, 26 --> 2, 27 --> 3, 28 --> 3, 29 --> 3, 30 --> 3, 31 --> 3,
                 32 --> 3, 33 --> 3, 34 --> 2, 35 --> 2, 36 --> 3, 37 --> 2, 38 --> 2, 39 --> 2, 40 --> 2)
letting courses_per_period_lb be 10
letting courses_per_period_ub be 23
letting load_per_period_lb be 22
letting load_per_period_ub be 39
letting n_courses be 40
letting n_periods be 4
letting prerequisite be
        relation((18, 27), (18, 29), (18, 30), (18, 33), (18, 34), (18, 35), (18, 37), (19, 27), (19, 29), (19, 30),
                 (19, 31), (19, 35), (19, 39), (20, 27), (20, 30), (20, 31), (20, 33), (20, 34), (20, 36), (20, 38),
                 (20, 39), (20, 40), (21, 26), (21, 29), (21, 32), (21, 33), (21, 34), (21, 35), (22, 26), (22, 27),
                 (22, 28), (22, 31), (22, 36), (22, 38), (23, 26), (23, 27), (23, 31), (23, 35), (23, 38), (23, 39))
$ Visualisation for prerequisite
$ 18 27
$ 18 29
$ 18 30
$ 18 33
$ 18 34
$ 18 35
$ 18 37
$ 19 27
$ 19 29
$ 19 30
$ 19 31
$ 19 35
$ 19 39
$ 20 27
$ 20 30
$ 20 31
$ 20 33
$ 20 34
$ 20 36
$ 20 38
$ 20 39
$ 20 40
$ 21 26
$ 21 29
$ 21 32
$ 21 33
$ 21 34
$ 21 35
$ 22 26
$ 22 27
$ 22 28
$ 22 31
$ 22 36
$ 22 38
$ 23 26
$ 23 27
$ 23 31
$ 23 35
$ 23 38
$ 23 39

